8607.0
0 0 0 1 0 1 0 1 0 1 0 0 1 0 0 1 0 0 1 0 



21 22 24 48 51 56 57 58 64 65 73 74 76 82 85 86 89 96 98 

0 1 2 3 4 5 6 7 44 45 54 67 69 99 

8 9 10 11 12 13 14 15 16 46 52 59 68 72 77 78 81 87 97 

25 26 27 28 29 30 31 32 


17 18 19 20 23 47 


33 49 50 55 61 62 63 66 75 79 83 84 88 90 91 94 


34 35 36 37 38 39 40 41 42 43 53 60 70 71 80 92 93 95 

